
(set-logic ALL) 

(declare-datatype MyList ((Nil) (Cons (head Real) (tail MyList)) )) 
(declare-fun l0 () MyList) 
(declare-fun l1 () MyList) 
(declare-fun l2 () MyList) 
(declare-fun l3 () MyList) 
(declare-fun i0 () Real) 
(declare-fun i1 () Real) 
(assert (not (is-Nil Nil)) )
(assert (is-Nil Nil) )
(assert (= l0 l1) )
(assert (is-Nil l3) )
(assert (and (is-Nil Nil) (is-Cons l0) (= l0 Nil)) )
(assert (is-Nil Nil) )
(assert (or (is-Cons Nil) (is-Nil Nil) (is-Nil Nil) (= l1 Nil)) )
(assert (not (= l3 l3)) )
(check-sat)
